c is-unsat
p cnf 10 72
-5 -2 -3 0
-8 -2 -10 0
-6 -9 2 0
-6 -10 -2 0
-9 7 -3 0
-8 1 -3 0
6 10 -4 0
-10 -3 -8 0
7 6 -8 0
-5 -7 10 0
-10 -6 9 0
-8 -1 9 0
-7 8 -3 0
-8 -4 -7 0
-5 -3 10 0
-4 -3 -2 0
4 -7 3 0
1 -3 -9 0
2 -7 6 0
-1 -8 -4 0
6 4 7 0
5 -6 -10 0
-6 -3 7 0
3 -10 7 0
8 7 5 0
3 2 10 0
8 -9 10 0
9 6 -1 0
-2 3 -7 0
9 -10 3 0
8 9 -3 0
9 -4 -1 0
-3 -4 -6 0
-10 6 -7 0
-10 -6 -9 0
-2 6 -9 0
1 -8 -9 0
-6 -7 9 0
2 -5 9 0
-5 3 -6 0
-1 5 7 0
-6 -7 -3 0
-8 -1 -10 0
1 -5 -10 0
-2 -8 1 0
-5 -4 6 0
-9 1 -6 0
-5 -6 -9 0
-7 -10 -4 0
3 -9 -4 0
-2 -7 8 0
-6 -10 -9 0
4 -2 -9 0
-1 -10 4 0
-6 -10 -5 0
-8 -5 -6 0
-8 5 9 0
1 -2 7 0
10 -6 -3 0
-4 9 5 0
-2 7 -3 0
3 -4 -10 0
9 -6 -8 0
1 -9 -3 0
-1 -5 -2 0
-8 6 -10 0
-6 -7 9 0
10 9 -6 0
-5 -3 -10 0
5 -8 -3 0
-5 -2 -1 0
-8 4 2 0
